
Starting CP-SAT solver v9.15.6755
Parameters: random_seed: 2026073291 max_time_in_seconds: 2500 log_search_progress: true cp_model_presolve: true linearization_level: 2 num_search_workers: 4 cp_model_probing_level: 2 symmetry_level: 2

Initial satisfaction model '': (model_fingerprint: 0xc97ac54850adf25)
#Variables: 724 (608 primary variables)
  - 724 Booleans in [0,1]
#kBoolAnd: 110 (#enforced: 110) (#literals: 330)
#kBoolOr: 110 (#enforced: 110) (#literals: 220)
#kExactlyOne: 87 (#literals: 261)
#kLinear1: 32 (#enforced: 6)
#kLinear2: 336 (#enforced: 336) (#complex_domain: 110)
#kLinear3: 1'600 (#enforced: 6)
#kLinearN: 1'132 (#enforced: 243) (#terms: 9'111)

Starting presolve at 0.00s
  6.13e-04s  0.00e+00d  [DetectDominanceRelations] 
  7.01e-03s  0.00e+00d  [PresolveToFixPoint] #num_loops=3 #num_dual_strengthening=1 
  2.91e-05s  0.00e+00d  [ExtractEncodingFromLinear] #potential_supersets=86 
  2.38e-04s  0.00e+00d  [DetectDuplicateColumns] 
  8.32e-05s  0.00e+00d  [DetectDuplicateConstraints] #duplicates=5 
[Symmetry] Graph for symmetry has 4'868 nodes and 15'708 arcs.
[Symmetry] Symmetry computation done. time: 0.00102839 dtime: 0.00181391
[SAT presolve] num removable Booleans: 220 / 626
[SAT presolve] num trivial clauses: 0
[SAT presolve] [0s] clauses:2'732 literals:7'430 vars:506 one_side_vars:66 simple_definition:1 singleton_clauses:0
[SAT presolve] [0.000188193s] clauses:2'731 literals:7'423 vars:506 one_side_vars:66 simple_definition:1 singleton_clauses:0
[SAT presolve] [0.000549425s] clauses:2'247 literals:6'594 vars:381 one_side_vars:71 simple_definition:71 singleton_clauses:0
  1.08e-04s  0.00e+00d  [DetectDuplicateConstraintsWithDifferentEnforcements] #without_enforcements=4 
  4.27e-03s  2.23e-03d  [Probe] #probed=1'301 #fixed_bools=15 #equiv=7 #new_binary_clauses=797 
  3.78e-04s  2.74e-04d  [MaxClique] Merged 587 constraints with 1'313 literals into 505 constraints with 1'179 literals
  7.05e-04s  0.00e+00d  [DetectDominanceRelations] 
  2.45e-03s  0.00e+00d  [PresolveToFixPoint] #num_loops=1 #num_dual_strengthening=1 
  9.27e-04s  0.00e+00d  [ProcessAtMostOneAndLinear] 
  8.34e-05s  0.00e+00d  [DetectDuplicateConstraints] #duplicates=10 
  6.45e-05s  0.00e+00d  [DetectDuplicateConstraintsWithDifferentEnforcements] 
  3.23e-03s  8.81e-05d  [DetectDominatedLinearConstraints] #relevant_constraints=820 #num_inclusions=438 #num_redundant=7 
  1.28e-04s  0.00e+00d  [DetectDifferentVariables] 
  9.20e-04s  8.23e-05d  [ProcessSetPPC] #relevant_constraints=2'992 #num_inclusions=83 
  2.86e-04s  3.36e-05d  [TransformClausesToExactlyOne] #num_amos=509 #num_clauses=1'672 #num_checked=1'672 
  3.97e-05s  0.00e+00d  [DetectEncodedComplexDomains] 
  2.55e-05s  9.00e-08d  [FindAlmostIdenticalLinearConstraints] #num_tested_pairs=1 
  7.75e-04s  1.38e-03d  [FindBigAtMostOneAndLinearOverlap] 
  1.14e-03s  1.15e-03d  [FindBigVerticalLinearOverlap] #blocks=4 #saved_nz=136 
  2.75e-04s  6.05e-04d  [FindBigHorizontalLinearOverlap] #linears=450 
  2.83e-04s  2.69e-05d  [MergeClauses] #num_collisions=19 #num_merges=19 #num_saved_literals=95 
  6.96e-04s  0.00e+00d  [DetectDominanceRelations] 
  2.37e-03s  0.00e+00d  [PresolveToFixPoint] #num_loops=2 #num_dual_strengthening=1 
  6.77e-04s  0.00e+00d  [DetectDominanceRelations] 
  2.31e-03s  0.00e+00d  [PresolveToFixPoint] #num_loops=1 #num_dual_strengthening=1 
  1.74e-04s  0.00e+00d  [DetectDuplicateColumns] 
  6.66e-05s  0.00e+00d  [DetectDuplicateConstraints] 
[Symmetry] Graph for symmetry has 4'285 nodes and 13'387 arcs.
[Symmetry] Symmetry computation done. time: 0.000784538 dtime: 0.00142349
[SAT presolve] num removable Booleans: 94 / 478
[SAT presolve] num trivial clauses: 0
[SAT presolve] [0s] clauses:2'131 literals:6'306 vars:453 one_side_vars:149 simple_definition:82 singleton_clauses:0
[SAT presolve] [0.000175133s] clauses:2'131 literals:6'136 vars:453 one_side_vars:194 simple_definition:65 singleton_clauses:0
[SAT presolve] [0.000243165s] clauses:2'121 literals:6'128 vars:449 one_side_vars:197 simple_definition:53 singleton_clauses:0
  1.16e-04s  0.00e+00d  [DetectDuplicateConstraintsWithDifferentEnforcements] #without_enforcements=1 
  3.59e-03s  1.69e-03d  [Probe] #probed=1'286 #new_binary_clauses=344 
  3.11e-04s  2.79e-04d  [MaxClique] Merged 503 constraints with 1'109 literals into 496 constraints with 1'107 literals
  7.04e-04s  0.00e+00d  [DetectDominanceRelations] 
  2.37e-03s  0.00e+00d  [PresolveToFixPoint] #num_loops=1 #num_dual_strengthening=1 
  8.73e-04s  0.00e+00d  [ProcessAtMostOneAndLinear] 
  1.02e-04s  0.00e+00d  [DetectDuplicateConstraints] 
  6.93e-05s  0.00e+00d  [DetectDuplicateConstraintsWithDifferentEnforcements] 
  2.69e-03s  5.62e-05d  [DetectDominatedLinearConstraints] #relevant_constraints=806 #num_inclusions=297 #num_redundant=1 
  5.48e-04s  0.00e+00d  [DetectDifferentVariables] 
  1.00e-03s  7.29e-05d  [ProcessSetPPC] #relevant_constraints=3'019 #num_inclusions=91 
  2.36e-04s  3.29e-05d  [TransformClausesToExactlyOne] #num_amos=497 #num_clauses=1'665 #num_checked=1'665 
  3.37e-05s  0.00e+00d  [DetectEncodedComplexDomains] 
  2.82e-05s  0.00e+00d  [FindAlmostIdenticalLinearConstraints] 
  7.02e-04s  1.14e-03d  [FindBigAtMostOneAndLinearOverlap] 
  1.04e-03s  1.01e-03d  [FindBigVerticalLinearOverlap] 
  2.64e-04s  5.60e-04d  [FindBigHorizontalLinearOverlap] #linears=450 
  2.85e-04s  2.60e-05d  [MergeClauses] #num_collisions=72 #num_merges=72 #num_saved_literals=210 
  7.22e-04s  0.00e+00d  [DetectDominanceRelations] 
  2.40e-03s  0.00e+00d  [PresolveToFixPoint] #num_loops=1 #num_dual_strengthening=1 
  7.00e-04s  0.00e+00d  [DetectDominanceRelations] 
  2.35e-03s  0.00e+00d  [PresolveToFixPoint] #num_loops=1 #num_dual_strengthening=1 
  1.69e-04s  0.00e+00d  [DetectDuplicateColumns] 
  7.10e-05s  0.00e+00d  [DetectDuplicateConstraints] 
[Symmetry] Graph for symmetry has 4'217 nodes and 13'034 arcs.
[Symmetry] Symmetry computation done. time: 0.000812419 dtime: 0.00140666
[SAT presolve] num removable Booleans: 90 / 474
[SAT presolve] num trivial clauses: 0
[SAT presolve] [0s] clauses:2'110 literals:6'098 vars:449 one_side_vars:198 simple_definition:54 singleton_clauses:0
[SAT presolve] [0.000165749s] clauses:2'110 literals:6'098 vars:449 one_side_vars:198 simple_definition:54 singleton_clauses:0
[SAT presolve] [0.000218698s] clauses:2'110 literals:6'098 vars:449 one_side_vars:198 simple_definition:54 singleton_clauses:0
  6.96e-05s  0.00e+00d  [DetectDuplicateConstraintsWithDifferentEnforcements] 
  3.47e-03s  1.69e-03d  [Probe] #probed=1'286 #new_binary_clauses=343 
  3.18e-04s  2.73e-04d  [MaxClique] Merged 495 constraints with 1'093 literals into 494 constraints with 1'092 literals
  7.14e-04s  0.00e+00d  [DetectDominanceRelations] 
  2.39e-03s  0.00e+00d  [PresolveToFixPoint] #num_loops=1 #num_dual_strengthening=1 
  8.49e-04s  0.00e+00d  [ProcessAtMostOneAndLinear] 
  8.43e-05s  0.00e+00d  [DetectDuplicateConstraints] 
  6.91e-05s  0.00e+00d  [DetectDuplicateConstraintsWithDifferentEnforcements] 
  6.67e-04s  5.56e-05d  [DetectDominatedLinearConstraints] #relevant_constraints=806 #num_inclusions=297 #num_redundant=1 
  1.13e-04s  0.00e+00d  [DetectDifferentVariables] 
  5.83e-04s  7.13e-05d  [ProcessSetPPC] #relevant_constraints=3'017 #num_inclusions=80 
  2.38e-04s  3.29e-05d  [TransformClausesToExactlyOne] #num_amos=494 #num_clauses=1'665 #num_checked=1'665 
  3.86e-05s  0.00e+00d  [DetectEncodedComplexDomains] 
  3.18e-05s  1.00e-07d  [FindAlmostIdenticalLinearConstraints] #num_tested_pairs=1 
  6.66e-04s  1.10e-03d  [FindBigAtMostOneAndLinearOverlap] 
  9.90e-04s  9.72e-04d  [FindBigVerticalLinearOverlap] 
  2.53e-04s  5.24e-04d  [FindBigHorizontalLinearOverlap] #linears=450 
  2.85e-04s  2.60e-05d  [MergeClauses] #num_collisions=72 #num_merges=72 #num_saved_literals=210 
  7.26e-04s  0.00e+00d  [DetectDominanceRelations] 
  2.40e-03s  0.00e+00d  [PresolveToFixPoint] #num_loops=1 #num_dual_strengthening=1 
  1.65e-05s  0.00e+00d  [MergeNoOverlap] 
  1.57e-05s  0.00e+00d  [MergeNoOverlap2D] 

Presolve summary:
  - 41 affine relations were detected.
  - rule 'TODO dual: only one blocking constraint?' was applied 870 times.
  - rule 'TODO dual: tighten at most one' was applied 8 times.
  - rule 'TODO linear inclusion: superset is equality' was applied 138 times.
  - rule 'affine: new relation' was applied 41 times.
  - rule 'at_most_one: removed literals' was applied 51 times.
  - rule 'at_most_one: size one' was applied 50 times.
  - rule 'at_most_one: transformed into max clique' was applied 3 times.
  - rule 'bool_or: implications' was applied 63 times.
  - rule 'bool_or: only one literal' was applied 12 times.
  - rule 'bool_or: removed enforcement literal' was applied 557 times.
  - rule 'deductions: 856 stored' was applied 1 time.
  - rule 'duplicate: merged rhs of linear constraint' was applied 14 times.
  - rule 'duplicate: removed constraint' was applied 15 times.
  - rule 'duplicate: removed enforced constraint' was applied 5 times.
  - rule 'enforcement: false literal' was applied 38 times.
  - rule 'enforcement: true literal' was applied 12 times.
  - rule 'exactly_one: removed literals' was applied 33 times.
  - rule 'exactly_one: satisfied' was applied 3 times.
  - rule 'exactly_one: singleton' was applied 3 times.
  - rule 'exactly_one: size two' was applied 30 times.
  - rule 'exactly_one: x and not(x)' was applied 5 times.
  - rule 'incompatible linear: add implication' was applied 129 times.
  - rule 'linear + amo: empty after processing' was applied 6 times.
  - rule 'linear + amo: extracted enforcement literal' was applied 56 times.
  - rule 'linear inclusion: redundant containing constraint' was applied 3 times.
  - rule 'linear inclusion: redundant included constraint' was applied 3 times.
  - rule 'linear inclusion: sparsify superset' was applied 3 times.
  - rule 'linear matrix: common vertical rectangle' was applied 4 times.
  - rule 'linear1: always true' was applied 4 times.
  - rule 'linear1: x in domain' was applied 26 times.
  - rule 'linear2: convert ax + by != cte to clauses' was applied 258 times.
  - rule 'linear2: convert implied ax + by == cte to clauses' was applied 114 times.
  - rule 'linear2: implied ax + by = cte has only one solution' was applied 8 times.
  - rule 'linear: always true' was applied 416 times.
  - rule 'linear: empty' was applied 9 times.
  - rule 'linear: enforcement literal in expression' was applied 8 times.
  - rule 'linear: extracted at most one (max)' was applied 1 time.
  - rule 'linear: fixed or dup variables' was applied 888 times.
  - rule 'linear: negative clause' was applied 1'299 times.
  - rule 'linear: negative reified and' was applied 78 times.
  - rule 'linear: never in domain' was applied 6 times.
  - rule 'linear: positive at most one' was applied 34 times.
  - rule 'linear: reduced variable domains' was applied 5 times.
  - rule 'linear: remapped using affine relations' was applied 35 times.
  - rule 'presolve: 81 unused variables removed.' was applied 1 time.
  - rule 'presolve: iteration' was applied 3 times.
  - rule 'probing: bool_or reduced to implication' was applied 27 times.
  - rule 'probing: simplified clauses' was applied 11 times.
  - rule 'setppc: bool_or in at_most_one' was applied 7 times.
  - rule 'setppc: removed dominated constraints' was applied 88 times.
  - rule 'variables: both boolean and its negation fix the same variable' was applied 4 times.
  - rule 'variables: detect half reified value encoding' was applied 8 times.

Presolved satisfaction model '': (model_fingerprint: 0x7ffecccdd5fd5892)
#Variables: 474 (405 primary variables)
  - 474 Booleans in [0,1]
#kAtMostOne: 51 (#literals: 206)
#kBoolAnd: 262 (#enforced: 262) (#literals: 705)
#kBoolAndClauses: 72 (#enforced: 72 #multi: 72) (#literals: 354)
#kBoolOr: 1'521 (#literals: 4'644)
#kExactlyOne: 52 (#literals: 200)
#kLinearN: 806 (#enforced: 116) (#terms: 5'623)
[Symmetry] Graph for symmetry has 3'962 nodes and 13'015 arcs.
[Symmetry] Symmetry computation done. time: 0.000651018 dtime: 0.0013768

Preloading model.
#Model   0.08s var:474/474 constraints:2764/2764

Starting search at 0.08s with 4 workers.
3 full problem subsolvers: [default_lp, max_lp, no_lp]
1 first solution subsolver: [fj]
2 interleaved subsolvers: [feasibility_pump, rins/rens]
2 helper subsolvers: [neighborhood_helper, synchronization_agent]

#Model   0.19s var:473/474 constraints:2763/2764
#Model   0.29s var:472/474 constraints:2763/2764
#Model  15.95s var:471/474 constraints:2763/2764
#Model  27.31s var:470/474 constraints:2746/2764
#Model  35.08s var:469/474 constraints:2742/2764
#Model  92.68s var:468/474 constraints:2740/2764
#Model 106.93s var:467/474 constraints:2740/2764
#Model 265.78s var:466/474 constraints:2738/2764

Task timing                   n [     min,      max]      avg      dev     time         n [     min,      max]      avg      dev    dtime
        'default_lp':         1 [  41.67m,   41.67m]   41.67m   0.00ns   41.67m         2 [  1.93ms,   50.00m]   25.00m   25.00m   50.00m
  'feasibility_pump':     13642 [767.85us, 115.15ms]   1.27ms   1.00ms   17.28s     13641 [262.41us, 127.23ms] 271.72us   1.09ms    3.71s
                'fj':     13312 [ 79.35ms, 139.10ms] 102.48ms   7.31ms   22.74m     13312 [100.00ms, 100.15ms] 100.02ms  14.15us   22.19m
            'max_lp':         1 [  41.67m,   41.67m]   41.67m   0.00ns   41.67m         2 [ 82.19ms,    1.24h]   37.27m   37.27m    1.24h
             'no_lp':         1 [  41.67m,   41.67m]   41.67m   0.00ns   41.67m         2 [  1.49ms,    1.80h]   53.91m   53.91m    1.80h
         'rins/rens':     13643 [  1.72ms, 221.69ms]  81.85ms  29.99ms   18.61m     13641 [134.04us, 100.39ms]  67.80ms  37.53ms   15.42m

Search stats     Bools   Conflicts    Branches  Restarts  BacktrackToRoot   Backtrack     BoolPropag  IntegerPropag
  'default_lp':    474     293'564   9'181'532     1'724        1'373'293   2'001'957     88'669'995     85'081'205
      'max_lp':    474      79'352  15'118'777       649        2'189'786   2'718'565    131'517'626    143'533'901
       'no_lp':    474  28'541'588  38'225'313    98'295          671'916  29'062'618  2'231'906'393    440'274'838

SAT formula      Fixed  Equiv  Total  VarLeft  BinaryClauses  PermanentClauses  TemporaryClauses
  'default_lp':      8      7    474      459          2'308            51'862            11'059
      'max_lp':      8      7    474      459          2'308            50'886             7'453
       'no_lp':      8      7    474      459          2'308           149'835             8'940

SAT stats        ClassicMinim   LitRemoved  LitRemovedBinary   LitLearned  LitForgotten   Subsumed
  'default_lp':       255'907    3'497'967         2'103'283    9'919'220     6'709'831     97'055
      'max_lp':        66'944      779'739           558'662    2'131'208     1'174'612     30'751
       'no_lp':    25'480'480  448'968'883       202'982'608  731'431'313   596'861'038  7'068'378

Vivification       Clauses   Decisions  LitTrue  Subsumed  LitRemoved  DecisionReused  Conflicts
  'default_lp':  1'399'800   8'488'581        2    12'233     143'042         349'814      1'132
      'max_lp':  2'172'169  14'540'374        0    13'437     155'294         442'905      1'299
       'no_lp':    474'339   4'163'395        0    33'494     422'701         108'124      1'069

Clause deletion    at_true  l_and_not(l)  to_binary  sub_conflict  sub_extra  sub_decisions  sub_eager  sub_vivify  sub_probing  sub_inpro  blocked  eliminated   forgotten    promoted   conflicts
    'default_lp':      719             3          7        95'502        800          2'833      1'553      12'233          392     10'090        0           0     169'656     590'778     293'564
        'max_lp':      458             4          5        30'401        181            621        350      13'437          711      2'809        0           0      35'704     137'772      79'352
         'no_lp':   10'040             0         13     6'953'477     49'268        267'937    114'901      33'494          915     73'153        0           0  20'886'626  64'700'720  28'541'588

Lp stats         Component  Iterations  AddedCuts  OPTIMAL  DUAL_F.  DUAL_U.
  'default_lp':          1  36'174'642    107'030  441'663        2  223'707
      'max_lp':          1  20'291'076     77'436   36'555   56'057   37'145

Lp dimension        Final dimension of first component
  'default_lp':   382 rows, 337 columns, 11335 entries
      'max_lp':  1716 rows, 474 columns, 39864 entries

Lp debug         CutPropag  CutEqPropag   Adjust  Overflow        Bad  BadScaling
  'default_lp':          1          120  223'636         0  2'738'800           0
      'max_lp':          0          352   37'134         0  2'017'500           0

Lp pool          Constraints  Updates  Simplif  Merged  Shortened  Split  Strengthened        Cuts/Call
  'default_lp':        9'800   24'351        0       0         78      0             0  107'030/113'304
      'max_lp':       12'521   23'636        0       5         96      0         2'250   77'436/100'873

Lp Cut           default_lp  max_lp
         CG_FF:       1'229     173
          CG_K:         547      12
         CG_KL:         529      10
          CG_R:       1'364      96
        Clique:           -     168
      MIR_1_FF:         637     828
       MIR_1_K:         123      42
      MIR_1_KL:         415      24
       MIR_1_R:         639     406
     MIR_1_RLT:           -   9'684
      MIR_2_FF:         807     630
       MIR_2_K:         173     115
      MIR_2_KL:         400     114
       MIR_2_R:       1'026     641
      MIR_3_FF:         419     184
       MIR_3_K:          78      18
      MIR_3_KL:         152      26
       MIR_3_R:         560     229
      MIR_4_FF:         132      34
       MIR_4_K:          28       4
      MIR_4_KL:          43       8
       MIR_4_R:         377     164
      MIR_5_FF:          58      13
       MIR_5_K:          19       2
      MIR_5_KL:           9       1
       MIR_5_R:         262     146
      MIR_6_FF:          44       5
       MIR_6_K:          17       3
      MIR_6_KL:           4       -
       MIR_6_R:         200     134
  ZERO_HALF_FF:         703     750
   ZERO_HALF_K:          52      12
  ZERO_HALF_KL:         113      12
   ZERO_HALF_R:      95'871  62'748

LNS stats       Improv/Calls  Closed  Difficulty  TimeLimit
  'rins/rens':   13643/13643     50%    7.91e-01       0.10

LS stats                                    Batches  Restarts/Perturbs    LinMoves    GenMoves  CompoundMoves  Bactracks  WeightUpdates  ScoreComputed
                             'fj_restart':      658                168  20'309'717           0              0          0     18'964'370        228'427
                    'fj_restart_compound':      633                173           0   7'347'075        456'704  3'444'855         16'604    115'934'039
                'fj_restart_compound_obj':    1'240                171           0  14'646'633        540'824  7'052'574         41'713    228'445'484
            'fj_restart_compound_perturb':    1'206                156           0  14'149'587        461'513  6'843'766         44'859    222'661'520
        'fj_restart_compound_perturb_obj':      946                160           0  11'155'881        454'544  5'350'393         31'427    173'574'802
                       'fj_restart_decay':      493                159  17'065'661           0              0          0        746'661        831'709
              'fj_restart_decay_compound':      838                177           0  10'683'551      1'793'472  4'444'586         11'570    155'372'995
          'fj_restart_decay_compound_obj':      863                157           0  11'095'601      1'856'234  4'619'304         11'839    160'132'944
      'fj_restart_decay_compound_perturb':    1'060                172           0  13'835'922      2'306'733  5'764'165         14'543    196'877'504
  'fj_restart_decay_compound_perturb_obj':      861                172           0  11'021'949      1'845'226  4'587'889         11'857    159'649'212
                   'fj_restart_decay_obj':      634                182  21'967'920           0              0          0        960'292      1'074'049
               'fj_restart_decay_perturb':      840                184  29'105'774           0              0          0      1'273'139      1'433'651
           'fj_restart_decay_perturb_obj':      523                149  18'121'107           0              0          0        792'628        886'380
                         'fj_restart_obj':      739                166  22'976'680           0              0          0     21'119'116        233'853
                     'fj_restart_perturb':      594                162  18'631'685           0              0          0     16'610'865        213'556
                 'fj_restart_perturb_obj':    1'184                185  35'146'392           0              0          0     36'048'678        334'958

Solution repositories    Added  Queried  Synchro
    'alternative_path':      0        0        0
      'best_solutions':      0        0        0
   'fj solution hints':  2'685        0    2'685
        'lp solutions':    897   13'643      883
                'pump':      0        0

Improving bounds shared    Num  Sym
            'default_lp':    5    0
                 'no_lp':    3    0

Clauses shared    #Exported  #Imported  #BinaryRead  #BinaryTotal
   'default_lp':      3'135     62'312          652           652
       'max_lp':      3'135     62'085          652           652
        'no_lp':     61'975      5'633          652           652

LRAT_status: NA
CpSolverResponse summary:
status: UNKNOWN
objective: NA
best_bound: NA
integers: 337
booleans: 474
conflicts: 293564
branches: 9181532
propagations: 88669995
integer_propagations: 85081205
restarts: 1724
lp_iterations: 36174642
walltime: 2500.03
usertime: 2500.03
deterministic_time: 16202.2
gap_integral: 0

{
  "board_size": 22,
  "parity_proved": 0,
  "target": 34,
  "child_id": 1191,
  "child_count": 2640,
  "partition": "unknown_pair_x_diag_plus_twos_x_diag_minus_twos",
  "build_seconds": 0.061043500900268555,
  "workers": 4,
  "requested_seed": 2026073291,
  "effective_seed": 2026073291,
  "main_diagonal_pair": [
    3,
    5
  ],
  "pair_index": 58,
  "diag_plus_twos": 16,
  "diag_minus_twos": 15,
  "pair_excess": 0,
  "residual_certificate_slack": 112,
  "analytic_minimum_line_defect": 46,
  "analytic_defect_details": {
    "row_costs": {
      "12": 6,
      "13": 3,
      "14": 0,
      "15": 0,
      "16": 0,
      "17": 0
    },
    "column_costs": {
      "12": 6,
      "13": 3,
      "14": 0,
      "15": 0,
      "16": 0,
      "17": 0
    },
    "plus_cost": 24,
    "minus_cost": 22,
    "row_column_minimum": 0
  },
  "maximal_line_constraints": 2455,
  "analytic_infeasible": false,
  "allowed_points": 242,
  "status": "UNKNOWN",
  "proof_method": "cp_sat_all_lines_with_certificate_profile_cuts",
  "elapsed_seconds": 2500.0347394943237,
  "branches": 9181532,
  "conflicts": 293564
}
